
  32   50
  10   11   14   16   15   11    5    9   22    8   11   15    9   12    8   10    8   10    5   16   10   19    9   11    8   17   10    9   10    3   10   17    0    0    0    0    0    0    0    0    0    0    0    0    0    0    0    0    0    0

   0   0   0   0   0   0   0   0   0   0   0   0   0   0   0   0   0   0   0   0   0   0   0   0   0   0   0   0   0   0   0   0   0   0   0   0   0   0   0   0   0   0   0   0   0   0   0   0   0   0   0  12 2 3 4 5 7 8 9 10 12 13 19 31 
   9   0   0   2   0   0   4   0   1   0   4   0   0   0   0   0   0   0   0   0   0   0   0   0   0   0   0   0   0   0   0   0   6   0   0   0   0   0   0   0   0   0   0   0   0   0   0   0   0   0   0   4 17 15 11 6 
  10   0   0   0   0   0   0   0   0  10   0   0   0   0   0   0   0   0   0   0   0   0   0   3   0   0   0   0   0   0   0   0   0   0   0   0   0   0   0   0   0   0   0   0   0   0   0   0   0   0   0   6 28 27 25 24 15 14 
   8   0   0   0   0   0   0   0   0   0   0   0   0   0   0   0   0   0   0   0   8   0   6   0   7   0   0   0   0   0   0   0   0   0   0   0   0   0   0   0   0   0   0   0   0   0   0   0   0   0   0   5 29 25 24 15 14 
   8   0   9   0   0   0   0   0   0   0   0   0   0   0   0   0   0   6   0   5   0   0   0   0   0   0   0   4   0   0   0   0   2   0   0   0   0   0   0   0   0   0   0   0   0   0   0   0   0   0   0   4 29 22 17 11 
   6   0   0   0   0   0   0   0   0   0   0   0   0   0   9   0   0   0   4   0   0   0   0   0   0   1   0   0   0   0   0   0  10   0   0   0   0   0   0   0   0   0   0   0   0   0   0   0   0   0   0   5 30 27 23 18 16 
   7   0   0   0   0   0   0   0   9   9   0   0   0   0   0   0   0   0   0   0   0   0   0   0   0   0   0   0   0   0   0   0   0   0   0   0   0   0   0   0   0   0   0   0   0   0   0   0   0   0   0   3 26 17 11 
   5   0   0   7   0   0   0   0   0   0   0   0   0   0   0   0   5   0   0   0   0   0   3   0   0   0   9   0   0   0   3  10   0   0   0   0   0   0   0   0   0   0   0   0   0   0   0   0   0   0   0   4 25 24 18 15 
   5   0   0   0  10   3   8   0   0  10   2   9   0   0   0   0   0   0   0   0   0   9   0   0   0   0   0   0   0   0   0   0   0   0   0   0   0   0   0   0   0   0   0   0   0   0   0   0   0   0   0   5 29 27 24 18 17 
   4   0   0   0   0   0   0   0   0   0   0   0   0   0   0   0   0   0   0   0   8   3   0   0   0   0   0   0   0   0   0   0   0   0   0   0   0   0   0   0   0   0   0   0   0   0   0   0   0   0   0   5 25 24 22 20 15 
   9   0   0   0   0   0   0   0   0   0   0   0   3   0   0   0   0   0   0   0   0   0   0   0   0   0   0   0   0   0   0   0   0   0   0   0   0   0   0   0   0   0   0   0   0   0   0   0   0   0   0   7 28 27 25 24 23 21 20 
   5   0   0   9   0   0   0   0   0   0   0   0   0   0   0   0   0   0   0   0   0   0   0   0   7   0   8   0   0   0   0   0   0   0   0   0   0   0   0   0   0   0   0   0   0   0   0   0   0   0   0   4 26 25 23 18 
  10  10   0   0   2   0   0   3   0   0   0   0   0   0   0   0   0   0   0   0   0   0   2   0   0   0   5   0   0   0   0   0   4   0   0   0   0   0   0   0   0   0   0   0   0   0   0   0   0   0   0   3 25 22 17 
   2   0   0   1   5   0   0   0   0   8   0   1   0   0   0   0   0   0   0   0   0   0   0   6   0   0   0   0   0   0   0   0   0   0   0   0   0   0   0   0   0   0   0   0   0   0   0   0   0   0   0   2 22 17 
  10   0   0   0   0   0   0   4   0   0   8   0   0   0   0   0   0   0   0   0   6   0   0   0   0   0   0   0   0   0   0   0   0   0   0   0   0   0   0   0   0   0   0   0   0   0   0   0   0   0   0   3 26 23 21 
   4   0   0   0   0   0   0   2   0   0   0   0   0   0   0   0   0   0   0   0   9   0   0   0   0   5   0   0   0   0   0   0   0   0   0   0   0   0   0   0   0   0   0   0   0   0   0   0   0   0   0   3 29 28 21 
   9   0   0   0   0   0  10   0   0   1   0   9   0   9   0   0   0   0   0   0   0   0   8   0   0   0   0   1   0   2   0   0   0   0   0   0   0   0   0   0   0   0   0   0   0   0   0   0   0   0   0   2 21 20 
   2   0   0   0   0   0   0   0   0   0   0   4   0   0   0   0   0   0  10   0   0   0   0   0   0   0   0   0   9   0   0   0   0   0   0   0   0   0   0   0   0   0   0   0   0   0   0   0   0   0   0   2 22 20 
   7   0   0   0   0   0   0   0   0   0   0   0   0   0   1   0   0   0   0   0   0   0   0   0   0   0   0   0   0   0   0   0   4   0   0   0   0   0   0   0   0   0   0   0   0   0   0   0   0   0   0   2 24 20 
   6   0   0   0   0   0   2   0   0   8   0   0   0   0   0   0   0   0   0   0   0   0   0   0   0   0   4   0   0   0   0   0   0   0   0   0   0   0   0   0   0   0   0   0   0   0   0   0   0   0   0   1 32
   2   0   7   0   3   0   0   0   0   8   0   0   5   0  10   0   0   0   0   0   5   0   0   0   4   0   0   0   0   0   0   0   0   0   0   0   0   0   0   0   0   0   0   0   0   0   0   0   0   0   0   1 32
   8   0   0   0   0  10   0   0   0   9   0   0   3   0   0   0   0   0   2   0   2   5   0   0   0   3   0   0   0   8   0   0   0   0   0   0   0   0   0   0   0   0   0   0   0   0   0   0   0   0   0   1 32
  10   0   6   0   1   0   3   0   0   0   0   4   0   0   0   0   0   0   0   0   8   0   0   0   0   0   0   0   0   0   0   0   0   0   0   0   0   0   0   0   0   0   0   0   0   0   0   0   0   0   0   1 32
   3   0   0   5   0   0   0   0   0   0   0   0   0   0   0   7   0   8   6   0   0   0   0   9   0   0   0   0   0   0   0   0   0   0   0   0   0   0   0   0   0   0   0   0   0   0   0   0   0   0   0   1 32
   6   1   0   0   0   0   0   0   0   0   0   0   0   0   0   0   0   0   0   0   0   0   0   0   0   0   0   0   0   0   0   0   0   0   0   0   0   0   0   0   0   0   0   0   0   0   0   0   0   0   0   1 32
  10   0   0   0   6   0   0   0   0   0   0   0   0   0   0   0   0   0   0   2   0   0   0   0   0   0   0   0   3   0   0   0   0   0   0   0   0   0   0   0   0   0   0   0   0   0   0   0   0   0   0   1 32
  10   0   0   0  10   0   0   0   7   0   0   0   0   0   4   0   0   0   0   0   0   0   0   0   7   0   0   0   0   0   0   0   0   0   0   0   0   0   0   0   0   0   0   0   0   0   0   0   0   0   0   1 32
   7   0   0   0   0   0   0   0   0   0   0   0   4   0   0   0   0   0   0   0   0   0  10   0   0   0   0  10   0   0   0   0   0   0   0   0   0   0   0   0   0   0   0   0   0   0   0   0   0   0   0   1 32
  10   0   0   2   0   0   0   0   0   0   0   0   0   0   0   0  10   0   0   0   0   0   0   0   0   0   0   0   0   0   0   0   0   0   0   0   0   0   0   0   0   0   0   0   0   0   0   0   0   0   0   1 32
  10   0   0   0   0   9   0   0   0   0   0   0   8   0   0   0   0   0   0   0   0   0   7   0   0   2   0   0   1   2   0   0   0   0   0   0   0   0   0   0   0   0   0   0   0   0   0   0   0   0   0   1 32
  10   0   0   0   0   0   0   0   0   0   0   0   0   0   0   8   0   0   0   0   4   0   6   0   0   0   0   0   0   0   0   0   6   0   0   0   0   0   0   0   0   0   0   0   0   0   0   0   0   0   0   1 32
   0   0   0   0   0   0   0   0   0   0   0   0   0   0   0   0   0   0   0   0   0   0   0   0   0   0   0   0   0   0   0   0   0   0   0   0   0   0   0   0   0   0   0   0   0   0   0   0   0   0   0   0 
